p cnf 1536 1926
21 -9 -8 6 0
29 22 31 33 0
29 22 31 -33 0
-31 -4 32 34 0
-31 -4 32 -34 0
-32 26 -18 35 0
-32 26 -18 -35 0
9 15 36 38 0
9 15 36 -38 0
-36 22 37 39 0
-36 22 37 -39 0
-37 -7 -10 40 0
-37 -7 -10 -40 0
24 -19 41 43 0
24 -19 41 -43 0
-41 -7 42 44 0
-41 -7 42 -44 0
-42 12 16 45 0
-42 12 16 -45 0
-25 -14 46 48 0
-25 -14 46 -48 0
-46 -4 47 49 0
-46 -4 47 -49 0
-47 12 -5 50 0
-47 12 -5 -50 0
-21 23 51 53 0
-21 23 51 -53 0
-51 11 52 54 0
-51 11 52 -54 0
-52 14 -18 55 0
-52 14 -18 -55 0
-16 -28 56 58 0
-16 -28 56 -58 0
-56 30 57 59 0
-56 30 57 -59 0
-57 4 7 60 0
-57 4 7 -60 0
26 5 61 63 0
26 5 61 -63 0
-61 29 62 64 0
-61 29 62 -64 0
-62 -22 -9 65 0
-62 -22 -9 -65 0
-1 27 -29 13 0
-15 13 -2 -22 0
-10 -17 23 -21 0
25 29 24 11 0
-10 27 66 68 0
-10 27 66 -68 0
-66 28 67 69 0
-66 28 67 -69 0
-67 30 22 70 0
-67 30 22 -70 0
-28 -24 13 -21 0
18 -9 71 73 0
18 -9 71 -73 0
-71 -14 72 74 0
-71 -14 72 -74 0
-72 15 -21 75 0
-72 15 -21 -75 0
2 -25 76 78 0
2 -25 76 -78 0
-76 1 77 79 0
-76 1 77 -79 0
-77 -17 -14 80 0
-77 -17 -14 -80 0
-30 -18 81 83 0
-30 -18 81 -83 0
-81 -4 82 84 0
-81 -4 82 -84 0
-82 -16 23 85 0
-82 -16 23 -85 0
17 12 86 88 0
17 12 86 -88 0
-86 -21 87 89 0
-86 -21 87 -89 0
-87 3 -25 90 0
-87 3 -25 -90 0
7 -4 91 93 0
7 -4 91 -93 0
-91 29 92 94 0
-91 29 92 -94 0
-92 14 9 95 0
-92 14 9 -95 0
-21 1 96 98 0
-21 1 96 -98 0
-96 -9 97 99 0
-96 -9 97 -99 0
-97 -6 14 100 0
-97 -6 14 -100 0
-23 -10 -1 -14 0
-23 29 101 103 0
-23 29 101 -103 0
-101 20 102 104 0
-101 20 102 -104 0
-102 -6 9 105 0
-102 -6 9 -105 0
-11 20 106 108 0
-11 20 106 -108 0
-106 23 107 109 0
-106 23 107 -109 0
-107 -6 7 110 0
-107 -6 7 -110 0
-23 6 111 113 0
-23 6 111 -113 0
-111 4 112 114 0
-111 4 112 -114 0
-112 25 -19 115 0
-112 25 -19 -115 0
-4 9 116 118 0
-4 9 116 -118 0
-116 12 117 119 0
-116 12 117 -119 0
-117 24 -17 120 0
-117 24 -17 -120 0
15 -19 -6 121 0
15 -19 -6 -121 0
14 8 17 -23 0
3 -1 122 124 0
3 -1 122 -124 0
-122 -2 123 125 0
-122 -2 123 -125 0
-123 -16 20 126 0
-123 -16 20 -126 0
-30 12 127 129 0
-30 12 127 -129 0
-127 25 128 130 0
-127 25 128 -130 0
-128 1 -24 131 0
-128 1 -24 -131 0
8 -6 132 134 0
8 -6 132 -134 0
-132 -2 133 135 0
-132 -2 133 -135 0
-133 -19 25 136 0
-133 -19 25 -136 0
17 -7 137 139 0
17 -7 137 -139 0
-137 -24 138 140 0
-137 -24 138 -140 0
-138 -15 -21 141 0
-138 -15 -21 -141 0
21 -28 142 144 0
21 -28 142 -144 0
-142 -19 143 145 0
-142 -19 143 -145 0
-143 -17 1 146 0
-143 -17 1 -146 0
-22 -18 147 149 0
-22 -18 147 -149 0
-147 -13 148 150 0
-147 -13 148 -150 0
-148 28 2 151 0
-148 28 2 -151 0
-19 27 152 154 0
-19 27 152 -154 0
-152 -20 153 155 0
-152 -20 153 -155 0
-153 -30 10 156 0
-153 -30 10 -156 0
-26 -28 157 159 0
-26 -28 157 -159 0
-157 -23 158 160 0
-157 -23 158 -160 0
-158 -25 -7 161 0
-158 -25 -7 -161 0
27 -15 162 164 0
27 -15 162 -164 0
-162 -24 163 165 0
-162 -24 163 -165 0
-163 13 -22 166 0
-163 13 -22 -166 0
24 -27 20 -30 0
-17 -28 167 169 0
-17 -28 167 -169 0
-167 -14 168 170 0
-167 -14 168 -170 0
-168 -21 -13 171 0
-168 -21 -13 -171 0
-25 5 172 174 0
-25 5 172 -174 0
-172 -3 173 175 0
-172 -3 173 -175 0
-173 12 -23 176 0
-173 12 -23 -176 0
-15 -14 177 179 0
-15 -14 177 -179 0
-177 -20 178 180 0
-177 -20 178 -180 0
-178 27 12 181 0
-178 27 12 -181 0
18 -9 182 184 0
18 -9 182 -184 0
-182 -8 183 185 0
-182 -8 183 -185 0
-183 4 16 186 0
-183 4 16 -186 0
-22 -24 187 189 0
-22 -24 187 -189 0
-187 29 188 190 0
-187 29 188 -190 0
-188 28 10 191 0
-188 28 10 -191 0
-20 10 192 194 0
-20 10 192 -194 0
-192 12 193 195 0
-192 12 193 -195 0
-193 -24 -29 196 0
-193 -24 -29 -196 0
15 -7 -4 -3 0
-9 -5 16 4 0
-28 18 197 199 0
-28 18 197 -199 0
-197 -22 198 200 0
-197 -22 198 -200 0
-198 -5 -26 201 0
-198 -5 -26 -201 0
-5 13 202 204 0
-5 13 202 -204 0
-202 -29 203 205 0
-202 -29 203 -205 0
-203 -8 20 206 0
-203 -8 20 -206 0
18 11 -21 17 0
8 18 207 209 0
8 18 207 -209 0
-207 3 208 210 0
-207 3 208 -210 0
-208 -6 -16 211 0
-208 -6 -16 -211 0
-10 9 212 214 0
-10 9 212 -214 0
-212 22 213 215 0
-212 22 213 -215 0
-213 -3 -13 216 0
-213 -3 -13 -216 0
21 -17 -19 -5 0
-21 -12 -11 217 0
-21 -12 -11 -217 0
26 -13 218 220 0
26 -13 218 -220 0
-218 4 219 221 0
-218 4 219 -221 0
-219 -8 -25 222 0
-219 -8 -25 -222 0
30 15 223 225 0
30 15 223 -225 0
-223 -28 224 226 0
-223 -28 224 -226 0
-224 -24 -29 227 0
-224 -24 -29 -227 0
-24 -27 228 230 0
-24 -27 228 -230 0
-228 -12 229 231 0
-228 -12 229 -231 0
-229 -15 -18 232 0
-229 -15 -18 -232 0
11 -24 29 -3 0
-8 -10 12 29 0
14 -10 233 235 0
14 -10 233 -235 0
-233 -27 234 236 0
-233 -27 234 -236 0
-234 -16 -6 237 0
-234 -16 -6 -237 0
-11 -27 238 240 0
-11 -27 238 -240 0
-238 12 239 241 0
-238 12 239 -241 0
-239 7 18 242 0
-239 7 18 -242 0
-26 -25 14 8 0
29 -28 243 245 0
29 -28 243 -245 0
-243 -4 244 246 0
-243 -4 244 -246 0
-244 27 -7 247 0
-244 27 -7 -247 0
2 4 248 250 0
2 4 248 -250 0
-248 12 249 251 0
-248 12 249 -251 0
-249 6 1 252 0
-249 6 1 -252 0
-14 29 26 30 0
-16 19 253 255 0
-16 19 253 -255 0
-253 -21 254 256 0
-253 -21 254 -256 0
-254 24 11 257 0
-254 24 11 -257 0
6 -30 258 260 0
6 -30 258 -260 0
-258 8 259 261 0
-258 8 259 -261 0
-259 19 -26 262 0
-259 19 -26 -262 0
30 -11 263 265 0
30 -11 263 -265 0
-263 14 264 266 0
-263 14 264 -266 0
-264 -7 27 267 0
-264 -7 27 -267 0
9 23 17 24 0
10 -18 -21 -7 0
3 25 268 270 0
3 25 268 -270 0
-268 11 269 271 0
-268 11 269 -271 0
-269 -24 -12 272 0
-269 -24 -12 -272 0
-5 4 273 275 0
-5 4 273 -275 0
-273 3 274 276 0
-273 3 274 -276 0
-274 6 15 277 0
-274 6 15 -277 0
4 28 278 280 0
4 28 278 -280 0
-278 16 279 281 0
-278 16 279 -281 0
-279 15 -23 282 0
-279 15 -23 -282 0
-27 -15 283 285 0
-27 -15 283 -285 0
-283 -6 284 286 0
-283 -6 284 -286 0
-284 -25 12 287 0
-284 -25 12 -287 0
-19 -30 -4 24 0
28 16 288 290 0
28 16 288 -290 0
-288 18 289 291 0
-288 18 289 -291 0
-289 21 -29 292 0
-289 21 -29 -292 0
-29 27 293 295 0
-29 27 293 -295 0
-293 -26 294 296 0
-293 -26 294 -296 0
-294 -30 -23 297 0
-294 -30 -23 -297 0
-25 -14 3 20 0
-29 24 5 -27 0
11 5 298 300 0
11 5 298 -300 0
-298 -12 299 301 0
-298 -12 299 -301 0
-299 21 9 302 0
-299 21 9 -302 0
7 3 303 305 0
7 3 303 -305 0
-303 13 304 306 0
-303 13 304 -306 0
-304 -6 8 307 0
-304 -6 8 -307 0
-3 28 308 310 0
-3 28 308 -310 0
-308 -6 309 311 0
-308 -6 309 -311 0
-309 4 16 312 0
-309 4 16 -312 0
10 -29 313 315 0
10 -29 313 -315 0
-313 -7 314 316 0
-313 -7 314 -316 0
-314 -5 8 317 0
-314 -5 8 -317 0
1 23 318 320 0
1 23 318 -320 0
-318 5 319 321 0
-318 5 319 -321 0
-319 4 -11 322 0
-319 4 -11 -322 0
-13 -29 323 325 0
-13 -29 323 -325 0
-323 12 324 326 0
-323 12 324 -326 0
-324 1 -20 327 0
-324 1 -20 -327 0
-25 -15 328 330 0
-25 -15 328 -330 0
-328 10 329 331 0
-328 10 329 -331 0
-329 26 -17 332 0
-329 26 -17 -332 0
-19 -28 333 335 0
-19 -28 333 -335 0
-333 -15 334 336 0
-333 -15 334 -336 0
-334 27 -21 337 0
-334 27 -21 -337 0
4 -1 338 340 0
4 -1 338 -340 0
-338 7 339 341 0
-338 7 339 -341 0
-339 -24 -21 342 0
-339 -24 -21 -342 0
15 27 343 345 0
15 27 343 -345 0
-343 20 344 346 0
-343 20 344 -346 0
-344 -7 -8 347 0
-344 -7 -8 -347 0
-7 28 348 350 0
-7 28 348 -350 0
-348 16 349 351 0
-348 16 349 -351 0
-349 15 -29 352 0
-349 15 -29 -352 0
-26 12 353 355 0
-26 12 353 -355 0
-353 22 354 356 0
-353 22 354 -356 0
-354 2 -13 357 0
-354 2 -13 -357 0
-14 5 358 360 0
-14 5 358 -360 0
-358 -12 359 361 0
-358 -12 359 -361 0
-359 25 17 362 0
-359 25 17 -362 0
12 -16 363 365 0
12 -16 363 -365 0
-363 -18 364 366 0
-363 -18 364 -366 0
-364 -8 -26 367 0
-364 -8 -26 -367 0
11 -17 368 370 0
11 -17 368 -370 0
-368 -8 369 371 0
-368 -8 369 -371 0
-369 -2 -6 372 0
-369 -2 -6 -372 0
-1 11 373 375 0
-1 11 373 -375 0
-373 -12 374 376 0
-373 -12 374 -376 0
-374 -2 -27 377 0
-374 -2 -27 -377 0
-12 -22 378 380 0
-12 -22 378 -380 0
-378 3 379 381 0
-378 3 379 -381 0
-379 1 -23 382 0
-379 1 -23 -382 0
17 -3 24 383 0
17 -3 24 -383 0
-26 -27 2 30 0
-1 -25 384 386 0
-1 -25 384 -386 0
-384 -6 385 387 0
-384 -6 385 -387 0
-385 -21 -11 388 0
-385 -21 -11 -388 0
3 -23 389 391 0
3 -23 389 -391 0
-389 26 390 392 0
-389 26 390 -392 0
-390 -19 -14 393 0
-390 -19 -14 -393 0
19 -11 394 396 0
19 -11 394 -396 0
-394 13 395 397 0
-394 13 395 -397 0
-395 -22 30 398 0
-395 -22 30 -398 0
10 -18 399 401 0
10 -18 399 -401 0
-399 3 400 402 0
-399 3 400 -402 0
-400 4 22 403 0
-400 4 22 -403 0
-5 29 404 406 0
-5 29 404 -406 0
-404 -4 405 407 0
-404 -4 405 -407 0
-405 -10 23 408 0
-405 -10 23 -408 0
30 -16 22 -10 0
-8 -24 409 411 0
-8 -24 409 -411 0
-409 -23 410 412 0
-409 -23 410 -412 0
-410 7 26 413 0
-410 7 26 -413 0
22 -2 414 416 0
22 -2 414 -416 0
-414 14 415 417 0
-414 14 415 -417 0
-415 30 3 418 0
-415 30 3 -418 0
-23 17 419 421 0
-23 17 419 -421 0
-419 15 420 422 0
-419 15 420 -422 0
-420 14 10 423 0
-420 14 10 -423 0
15 -4 6 -26 0
-7 -18 -24 -2 0
5 -3 424 426 0
5 -3 424 -426 0
-424 -24 425 427 0
-424 -24 425 -427 0
-425 23 20 428 0
-425 23 20 -428 0
-12 -9 429 431 0
-12 -9 429 -431 0
-429 22 430 432 0
-429 22 430 -432 0
-430 -13 24 433 0
-430 -13 24 -433 0
-20 -11 434 436 0
-20 -11 434 -436 0
-434 -19 435 437 0
-434 -19 435 -437 0
-435 15 -16 438 0
-435 15 -16 -438 0
25 -16 439 441 0
25 -16 439 -441 0
-439 27 440 442 0
-439 27 440 -442 0
-440 -14 -30 443 0
-440 -14 -30 -443 0
-9 17 -15 -4 0
-5 4 444 446 0
-5 4 444 -446 0
-444 15 445 447 0
-444 15 445 -447 0
-445 18 -17 448 0
-445 18 -17 -448 0
13 -9 449 451 0
13 -9 449 -451 0
-449 6 450 452 0
-449 6 450 -452 0
-450 15 16 453 0
-450 15 16 -453 0
19 13 -27 -23 0
-14 -16 454 456 0
-14 -16 454 -456 0
-454 11 455 457 0
-454 11 455 -457 0
-455 -23 -28 458 0
-455 -23 -28 -458 0
-25 -18 459 461 0
-25 -18 459 -461 0
-459 -23 460 462 0
-459 -23 460 -462 0
-460 4 11 463 0
-460 4 11 -463 0
-26 -17 23 20 0
27 4 464 466 0
27 4 464 -466 0
-464 -20 465 467 0
-464 -20 465 -467 0
-465 22 8 468 0
-465 22 8 -468 0
17 8 469 471 0
17 8 469 -471 0
-469 -15 470 472 0
-469 -15 470 -472 0
-470 -3 -1 473 0
-470 -3 -1 -473 0
4 -1 474 476 0
4 -1 474 -476 0
-474 10 475 477 0
-474 10 475 -477 0
-475 17 23 478 0
-475 17 23 -478 0
-16 -11 479 481 0
-16 -11 479 -481 0
-479 -19 480 482 0
-479 -19 480 -482 0
-480 29 -27 483 0
-480 29 -27 -483 0
28 -10 484 486 0
28 -10 484 -486 0
-484 -29 485 487 0
-484 -29 485 -487 0
-485 -2 30 488 0
-485 -2 30 -488 0
26 -5 18 -6 0
-3 -21 489 491 0
-3 -21 489 -491 0
-489 5 490 492 0
-489 5 490 -492 0
-490 -8 13 493 0
-490 -8 13 -493 0
-15 -29 494 496 0
-15 -29 494 -496 0
-494 -27 495 497 0
-494 -27 495 -497 0
-495 -24 18 498 0
-495 -24 18 -498 0
-27 24 499 501 0
-27 24 499 -501 0
-499 30 500 502 0
-499 30 500 -502 0
-500 7 -6 503 0
-500 7 -6 -503 0
-26 -25 504 506 0
-26 -25 504 -506 0
-504 -7 505 507 0
-504 -7 505 -507 0
-505 4 28 508 0
-505 4 28 -508 0
27 -20 509 511 0
27 -20 509 -511 0
-509 18 510 512 0
-509 18 510 -512 0
-510 4 7 513 0
-510 4 7 -513 0
-18 -29 514 516 0
-18 -29 514 -516 0
-514 -14 515 517 0
-514 -14 515 -517 0
-515 5 7 518 0
-515 5 7 -518 0
21 -30 519 521 0
21 -30 519 -521 0
-519 -14 520 522 0
-519 -14 520 -522 0
-520 -6 -13 523 0
-520 -6 -13 -523 0
10 24 524 526 0
10 24 524 -526 0
-524 -2 525 527 0
-524 -2 525 -527 0
-525 -25 30 528 0
-525 -25 30 -528 0
20 -15 529 531 0
20 -15 529 -531 0
-529 28 530 532 0
-529 28 530 -532 0
-530 -2 18 533 0
-530 -2 18 -533 0
-25 -1 -19 -26 0
29 22 10 7 0
-3 -9 534 536 0
-3 -9 534 -536 0
-534 -17 535 537 0
-534 -17 535 -537 0
-535 -16 11 538 0
-535 -16 11 -538 0
2 25 539 541 0
2 25 539 -541 0
-539 -22 540 542 0
-539 -22 540 -542 0
-540 -8 9 543 0
-540 -8 9 -543 0
4 8 544 546 0
4 8 544 -546 0
-544 -28 545 547 0
-544 -28 545 -547 0
-545 -19 -30 548 0
-545 -19 -30 -548 0
-12 -21 549 551 0
-12 -21 549 -551 0
-549 -18 550 552 0
-549 -18 550 -552 0
-550 -22 -11 553 0
-550 -22 -11 -553 0
22 8 -13 -6 0
15 -2 554 556 0
15 -2 554 -556 0
-554 -11 555 557 0
-554 -11 555 -557 0
-555 23 -8 558 0
-555 23 -8 -558 0
-8 23 559 561 0
-8 23 559 -561 0
-559 4 560 562 0
-559 4 560 -562 0
-560 -15 -6 563 0
-560 -15 -6 -563 0
-27 6 22 3 0
-2 -22 564 566 0
-2 -22 564 -566 0
-564 -27 565 567 0
-564 -27 565 -567 0
-565 8 -15 568 0
-565 8 -15 -568 0
-17 2 -4 15 0
-2 -3 23 569 0
-2 -3 23 -569 0
20 -22 570 572 0
20 -22 570 -572 0
-570 -29 571 573 0
-570 -29 571 -573 0
-571 25 -13 574 0
-571 25 -13 -574 0
-3 -11 575 577 0
-3 -11 575 -577 0
-575 -23 576 578 0
-575 -23 576 -578 0
-576 -22 13 579 0
-576 -22 13 -579 0
13 -21 19 10 0
-17 7 580 582 0
-17 7 580 -582 0
-580 -6 581 583 0
-580 -6 581 -583 0
-581 14 13 584 0
-581 14 13 -584 0
-3 20 585 587 0
-3 20 585 -587 0
-585 1 586 588 0
-585 1 586 -588 0
-586 29 8 589 0
-586 29 8 -589 0
1 -23 590 592 0
1 -23 590 -592 0
-590 19 591 593 0
-590 19 591 -593 0
-591 25 -20 594 0
-591 25 -20 -594 0
-18 17 -3 25 0
11 -8 595 597 0
11 -8 595 -597 0
-595 -14 596 598 0
-595 -14 596 -598 0
-596 -1 21 599 0
-596 -1 21 -599 0
18 19 600 602 0
18 19 600 -602 0
-600 15 601 603 0
-600 15 601 -603 0
-601 10 -3 604 0
-601 10 -3 -604 0
7 22 605 607 0
7 22 605 -607 0
-605 -12 606 608 0
-605 -12 606 -608 0
-606 -27 -18 609 0
-606 -27 -18 -609 0
18 7 610 612 0
18 7 610 -612 0
-610 20 611 613 0
-610 20 611 -613 0
-611 -2 9 614 0
-611 -2 9 -614 0
21 12 615 617 0
21 12 615 -617 0
-615 11 616 618 0
-615 11 616 -618 0
-616 -15 7 619 0
-616 -15 7 -619 0
2 -17 620 622 0
2 -17 620 -622 0
-620 12 621 623 0
-620 12 621 -623 0
-621 9 -14 624 0
-621 9 -14 -624 0
-25 -9 625 627 0
-25 -9 625 -627 0
-625 24 626 628 0
-625 24 626 -628 0
-626 -27 -10 629 0
-626 -27 -10 -629 0
-16 1 630 632 0
-16 1 630 -632 0
-630 -9 631 633 0
-630 -9 631 -633 0
-631 -22 8 634 0
-631 -22 8 -634 0
17 -12 635 637 0
17 -12 635 -637 0
-635 21 636 638 0
-635 21 636 -638 0
-636 13 -19 639 0
-636 13 -19 -639 0
-28 -8 640 642 0
-28 -8 640 -642 0
-640 25 641 643 0
-640 25 641 -643 0
-641 -4 -15 644 0
-641 -4 -15 -644 0
23 -1 645 647 0
23 -1 645 -647 0
-645 14 646 648 0
-645 14 646 -648 0
-646 25 5 649 0
-646 25 5 -649 0
-26 27 650 652 0
-26 27 650 -652 0
-650 -23 651 653 0
-650 -23 651 -653 0
-651 -7 5 654 0
-651 -7 5 -654 0
-12 21 10 16 0
-7 23 655 657 0
-7 23 655 -657 0
-655 14 656 658 0
-655 14 656 -658 0
-656 -20 1 659 0
-656 -20 1 -659 0
3 -10 4 -16 0
-4 20 660 662 0
-4 20 660 -662 0
-660 -6 661 663 0
-660 -6 661 -663 0
-661 23 -2 664 0
-661 23 -2 -664 0
-7 6 -27 16 0
-19 -17 665 667 0
-19 -17 665 -667 0
-665 -26 666 668 0
-665 -26 666 -668 0
-666 28 1 669 0
-666 28 1 -669 0
30 24 670 672 0
30 24 670 -672 0
-670 16 671 673 0
-670 16 671 -673 0
-671 20 11 674 0
-671 20 11 -674 0
21 30 9 -22 0
-19 2 675 677 0
-19 2 675 -677 0
-675 23 676 678 0
-675 23 676 -678 0
-676 1 -13 679 0
-676 1 -13 -679 0
20 -29 680 682 0
20 -29 680 -682 0
-680 22 681 683 0
-680 22 681 -683 0
-681 -16 2 684 0
-681 -16 2 -684 0
-1 -30 685 687 0
-1 -30 685 -687 0
-685 25 686 688 0
-685 25 686 -688 0
-686 27 15 689 0
-686 27 15 -689 0
-17 13 30 690 0
-17 13 30 -690 0
12 -8 691 693 0
12 -8 691 -693 0
-691 -1 692 694 0
-691 -1 692 -694 0
-692 22 25 695 0
-692 22 25 -695 0
-22 -24 -25 2 0
17 -16 696 698 0
17 -16 696 -698 0
-696 -4 697 699 0
-696 -4 697 -699 0
-697 22 28 700 0
-697 22 28 -700 0
-26 -12 -28 4 0
-14 29 701 703 0
-14 29 701 -703 0
-701 25 702 704 0
-701 25 702 -704 0
-702 19 3 705 0
-702 19 3 -705 0
29 -4 706 708 0
29 -4 706 -708 0
-706 15 707 709 0
-706 15 707 -709 0
-707 -11 -27 710 0
-707 -11 -27 -710 0
20 -14 711 713 0
20 -14 711 -713 0
-711 4 712 714 0
-711 4 712 -714 0
-712 -16 13 715 0
-712 -16 13 -715 0
-19 -9 716 718 0
-19 -9 716 -718 0
-716 20 717 719 0
-716 20 717 -719 0
-717 -18 -29 720 0
-717 -18 -29 -720 0
-28 -11 721 723 0
-28 -11 721 -723 0
-721 6 722 724 0
-721 6 722 -724 0
-722 18 30 725 0
-722 18 30 -725 0
16 21 24 18 0
-13 25 726 728 0
-13 25 726 -728 0
-726 29 727 729 0
-726 29 727 -729 0
-727 24 -5 730 0
-727 24 -5 -730 0
21 16 731 733 0
21 16 731 -733 0
-731 -15 732 734 0
-731 -15 732 -734 0
-732 -18 -19 735 0
-732 -18 -19 -735 0
-5 23 736 738 0
-5 23 736 -738 0
-736 1 737 739 0
-736 1 737 -739 0
-737 10 -28 740 0
-737 10 -28 -740 0
13 -11 741 743 0
13 -11 741 -743 0
-741 22 742 744 0
-741 22 742 -744 0
-742 -4 -17 745 0
-742 -4 -17 -745 0
-6 25 746 748 0
-6 25 746 -748 0
-746 -19 747 749 0
-746 -19 747 -749 0
-747 16 11 750 0
-747 16 11 -750 0
2 -11 751 753 0
2 -11 751 -753 0
-751 29 752 754 0
-751 29 752 -754 0
-752 -10 5 755 0
-752 -10 5 -755 0
-30 -28 -5 -21 0
16 -1 -5 3 0
-22 3 756 758 0
-22 3 756 -758 0
-756 -8 757 759 0
-756 -8 757 -759 0
-757 -15 -4 760 0
-757 -15 -4 -760 0
-20 16 -21 -19 0
-8 6 761 763 0
-8 6 761 -763 0
-761 -27 762 764 0
-761 -27 762 -764 0
-762 10 -15 765 0
-762 10 -15 -765 0
24 14 -10 -3 0
30 26 766 768 0
30 26 766 -768 0
-766 -7 767 769 0
-766 -7 767 -769 0
-767 -19 -28 770 0
-767 -19 -28 -770 0
-13 -29 771 773 0
-13 -29 771 -773 0
-771 -10 772 774 0
-771 -10 772 -774 0
-772 15 -27 775 0
-772 15 -27 -775 0
28 21 776 778 0
28 21 776 -778 0
-776 20 777 779 0
-776 20 777 -779 0
-777 26 9 780 0
-777 26 9 -780 0
-24 -4 781 783 0
-24 -4 781 -783 0
-781 29 782 784 0
-781 29 782 -784 0
-782 28 5 785 0
-782 28 5 -785 0
-26 18 786 788 0
-26 18 786 -788 0
-786 -27 787 789 0
-786 -27 787 -789 0
-787 9 -3 790 0
-787 9 -3 -790 0
-4 15 791 793 0
-4 15 791 -793 0
-791 12 792 794 0
-791 12 792 -794 0
-792 28 -30 795 0
-792 28 -30 -795 0
24 13 -17 2 0
6 -16 796 798 0
6 -16 796 -798 0
-796 22 797 799 0
-796 22 797 -799 0
-797 -20 7 800 0
-797 -20 7 -800 0
-18 -1 801 803 0
-18 -1 801 -803 0
-801 17 802 804 0
-801 17 802 -804 0
-802 7 8 805 0
-802 7 8 -805 0
-23 -3 806 808 0
-23 -3 806 -808 0
-806 5 807 809 0
-806 5 807 -809 0
-807 30 28 810 0
-807 30 28 -810 0
-8 -3 811 813 0
-8 -3 811 -813 0
-811 16 812 814 0
-811 16 812 -814 0
-812 7 9 815 0
-812 7 9 -815 0
8 27 816 818 0
8 27 816 -818 0
-816 2 817 819 0
-816 2 817 -819 0
-817 -17 -12 820 0
-817 -17 -12 -820 0
8 -4 821 823 0
8 -4 821 -823 0
-821 -19 822 824 0
-821 -19 822 -824 0
-822 -11 -15 825 0
-822 -11 -15 -825 0
14 -7 826 828 0
14 -7 826 -828 0
-826 -17 827 829 0
-826 -17 827 -829 0
-827 -11 -20 830 0
-827 -11 -20 -830 0
14 -26 -10 5 0
25 2 831 833 0
25 2 831 -833 0
-831 -29 832 834 0
-831 -29 832 -834 0
-832 -30 -26 835 0
-832 -30 -26 -835 0
-29 6 8 27 0
14 13 836 838 0
14 13 836 -838 0
-836 -11 837 839 0
-836 -11 837 -839 0
-837 -9 8 840 0
-837 -9 8 -840 0
22 -4 841 843 0
22 -4 841 -843 0
-841 21 842 844 0
-841 21 842 -844 0
-842 1 20 845 0
-842 1 20 -845 0
-13 3 23 -12 0
-22 -5 846 848 0
-22 -5 846 -848 0
-846 -10 847 849 0
-846 -10 847 -849 0
-847 -11 17 850 0
-847 -11 17 -850 0
-30 27 -25 2 0
-10 -23 851 853 0
-10 -23 851 -853 0
-851 26 852 854 0
-851 26 852 -854 0
-852 -29 1 855 0
-852 -29 1 -855 0
19 13 856 858 0
19 13 856 -858 0
-856 -1 857 859 0
-856 -1 857 -859 0
-857 9 14 860 0
-857 9 14 -860 0
-8 -19 1 861 0
-8 -19 1 -861 0
8 14 862 864 0
8 14 862 -864 0
-862 29 863 865 0
-862 29 863 -865 0
-863 9 -26 866 0
-863 9 -26 -866 0
-24 -28 867 869 0
-24 -28 867 -869 0
-867 19 868 870 0
-867 19 868 -870 0
-868 1 26 871 0
-868 1 26 -871 0
-4 -27 872 874 0
-4 -27 872 -874 0
-872 19 873 875 0
-872 19 873 -875 0
-873 9 -15 876 0
-873 9 -15 -876 0
13 -20 26 6 0
-27 -30 877 879 0
-27 -30 877 -879 0
-877 -16 878 880 0
-877 -16 878 -880 0
-878 -20 15 881 0
-878 -20 15 -881 0
26 7 882 884 0
26 7 882 -884 0
-882 27 883 885 0
-882 27 883 -885 0
-883 2 22 886 0
-883 2 22 -886 0
15 9 26 11 0
19 23 887 889 0
19 23 887 -889 0
-887 10 888 890 0
-887 10 888 -890 0
-888 14 -8 891 0
-888 14 -8 -891 0
5 8 3 26 0
-18 -29 -10 892 0
-18 -29 -10 -892 0
5 22 -1 -7 0
-27 11 893 895 0
-27 11 893 -895 0
-893 -9 894 896 0
-893 -9 894 -896 0
-894 -7 -26 897 0
-894 -7 -26 -897 0
-6 -1 -16 898 0
-6 -1 -16 -898 0
29 13 899 901 0
29 13 899 -901 0
-899 18 900 902 0
-899 18 900 -902 0
-900 25 -15 903 0
-900 25 -15 -903 0
-28 2 904 906 0
-28 2 904 -906 0
-904 3 905 907 0
-904 3 905 -907 0
-905 25 -24 908 0
-905 25 -24 -908 0
-20 -12 909 911 0
-20 -12 909 -911 0
-909 -13 910 912 0
-909 -13 910 -912 0
-910 18 -21 913 0
-910 18 -21 -913 0
-21 -24 914 916 0
-21 -24 914 -916 0
-914 11 915 917 0
-914 11 915 -917 0
-915 29 -9 918 0
-915 29 -9 -918 0
1 -28 919 921 0
1 -28 919 -921 0
-919 4 920 922 0
-919 4 920 -922 0
-920 8 7 923 0
-920 8 7 -923 0
21 19 924 926 0
21 19 924 -926 0
-924 -14 925 927 0
-924 -14 925 -927 0
-925 5 26 928 0
-925 5 26 -928 0
9 -20 -22 16 0
-7 29 929 931 0
-7 29 929 -931 0
-929 -24 930 932 0
-929 -24 930 -932 0
-930 -18 22 933 0
-930 -18 22 -933 0
-17 -13 -5 -26 0
5 -25 934 936 0
5 -25 934 -936 0
-934 -19 935 937 0
-934 -19 935 -937 0
-935 10 -3 938 0
-935 10 -3 -938 0
25 -1 939 941 0
25 -1 939 -941 0
-939 -17 940 942 0
-939 -17 940 -942 0
-940 -2 -26 943 0
-940 -2 -26 -943 0
-18 -10 944 946 0
-18 -10 944 -946 0
-944 -2 945 947 0
-944 -2 945 -947 0
-945 25 -4 948 0
-945 25 -4 -948 0
-9 12 7 17 0
6 -15 -1 30 0
30 -23 -3 9 0
27 19 949 951 0
27 19 949 -951 0
-949 -4 950 952 0
-949 -4 950 -952 0
-950 6 21 953 0
-950 6 21 -953 0
-15 4 -23 -2 0
-4 17 954 956 0
-4 17 954 -956 0
-954 -1 955 957 0
-954 -1 955 -957 0
-955 -8 19 958 0
-955 -8 19 -958 0
1 23 959 961 0
1 23 959 -961 0
-959 2 960 962 0
-959 2 960 -962 0
-960 20 6 963 0
-960 20 6 -963 0
22 -2 964 966 0
22 -2 964 -966 0
-964 21 965 967 0
-964 21 965 -967 0
-965 27 14 968 0
-965 27 14 -968 0
-2 9 4 12 0
19 -12 13 4 0
17 -16 969 971 0
17 -16 969 -971 0
-969 3 970 972 0
-969 3 970 -972 0
-970 -30 5 973 0
-970 -30 5 -973 0
-9 -7 974 976 0
-9 -7 974 -976 0
-974 6 975 977 0
-974 6 975 -977 0
-975 11 -1 978 0
-975 11 -1 -978 0
-14 -5 979 981 0
-14 -5 979 -981 0
-979 -13 980 982 0
-979 -13 980 -982 0
-980 19 -4 983 0
-980 19 -4 -983 0
-23 -10 984 986 0
-23 -10 984 -986 0
-984 11 985 987 0
-984 11 985 -987 0
-985 -16 5 988 0
-985 -16 5 -988 0
7 28 989 991 0
7 28 989 -991 0
-989 -24 990 992 0
-989 -24 990 -992 0
-990 22 -23 993 0
-990 22 -23 -993 0
9 23 -19 18 0
-20 26 2 -1 0
11 8 994 996 0
11 8 994 -996 0
-994 30 995 997 0
-994 30 995 -997 0
-995 -26 -7 998 0
-995 -26 -7 -998 0
19 6 -21 28 0
3 6 999 1001 0
3 6 999 -1001 0
-999 -22 1000 1002 0
-999 -22 1000 -1002 0
-1000 12 -2 1003 0
-1000 12 -2 -1003 0
-11 9 1004 1006 0
-11 9 1004 -1006 0
-1004 13 1005 1007 0
-1004 13 1005 -1007 0
-1005 8 16 1008 0
-1005 8 16 -1008 0
-23 21 1009 1011 0
-23 21 1009 -1011 0
-1009 2 1010 1012 0
-1009 2 1010 -1012 0
-1010 -16 24 1013 0
-1010 -16 24 -1013 0
22 -15 1014 1016 0
22 -15 1014 -1016 0
-1014 26 1015 1017 0
-1014 26 1015 -1017 0
-1015 24 -8 1018 0
-1015 24 -8 -1018 0
-25 4 1019 1021 0
-25 4 1019 -1021 0
-1019 24 1020 1022 0
-1019 24 1020 -1022 0
-1020 6 -18 1023 0
-1020 6 -18 -1023 0
-28 22 1024 1026 0
-28 22 1024 -1026 0
-1024 30 1025 1027 0
-1024 30 1025 -1027 0
-1025 -5 -26 1028 0
-1025 -5 -26 -1028 0
-2 -24 1029 1031 0
-2 -24 1029 -1031 0
-1029 8 1030 1032 0
-1029 8 1030 -1032 0
-1030 16 18 1033 0
-1030 16 18 -1033 0
-9 -15 23 -5 0
-29 14 -10 1034 0
-29 14 -10 -1034 0
27 7 1035 1037 0
27 7 1035 -1037 0
-1035 11 1036 1038 0
-1035 11 1036 -1038 0
-1036 -2 17 1039 0
-1036 -2 17 -1039 0
-8 9 1040 1042 0
-8 9 1040 -1042 0
-1040 27 1041 1043 0
-1040 27 1041 -1043 0
-1041 6 -11 1044 0
-1041 6 -11 -1044 0
29 5 -16 -1 0
26 -17 1045 1047 0
26 -17 1045 -1047 0
-1045 3 1046 1048 0
-1045 3 1046 -1048 0
-1046 -2 30 1049 0
-1046 -2 30 -1049 0
11 30 -28 -21 0
4 21 1050 1052 0
4 21 1050 -1052 0
-1050 -13 1051 1053 0
-1050 -13 1051 -1053 0
-1051 2 17 1054 0
-1051 2 17 -1054 0
-10 -1 1055 1057 0
-10 -1 1055 -1057 0
-1055 25 1056 1058 0
-1055 25 1056 -1058 0
-1056 -6 11 1059 0
-1056 -6 11 -1059 0
-2 16 1060 1062 0
-2 16 1060 -1062 0
-1060 -14 1061 1063 0
-1060 -14 1061 -1063 0
-1061 -6 13 1064 0
-1061 -6 13 -1064 0
-24 -18 1065 1067 0
-24 -18 1065 -1067 0
-1065 -6 1066 1068 0
-1065 -6 1066 -1068 0
-1066 -19 -29 1069 0
-1066 -19 -29 -1069 0
17 -11 -24 -18 0
18 -12 1070 1072 0
18 -12 1070 -1072 0
-1070 -11 1071 1073 0
-1070 -11 1071 -1073 0
-1071 20 -17 1074 0
-1071 20 -17 -1074 0
18 -3 1075 1077 0
18 -3 1075 -1077 0
-1075 8 1076 1078 0
-1075 8 1076 -1078 0
-1076 23 -13 1079 0
-1076 23 -13 -1079 0
-30 -13 1080 1082 0
-30 -13 1080 -1082 0
-1080 17 1081 1083 0
-1080 17 1081 -1083 0
-1081 23 16 1084 0
-1081 23 16 -1084 0
-12 18 1 9 0
3 1 1085 1087 0
3 1 1085 -1087 0
-1085 -12 1086 1088 0
-1085 -12 1086 -1088 0
-1086 8 -22 1089 0
-1086 8 -22 -1089 0
-25 16 1090 1092 0
-25 16 1090 -1092 0
-1090 -3 1091 1093 0
-1090 -3 1091 -1093 0
-1091 -17 28 1094 0
-1091 -17 28 -1094 0
-9 28 -8 -12 0
-5 27 -15 -16 0
-27 17 1095 1097 0
-27 17 1095 -1097 0
-1095 -19 1096 1098 0
-1095 -19 1096 -1098 0
-1096 25 28 1099 0
-1096 25 28 -1099 0
-17 12 1100 1102 0
-17 12 1100 -1102 0
-1100 -9 1101 1103 0
-1100 -9 1101 -1103 0
-1101 -5 -26 1104 0
-1101 -5 -26 -1104 0
8 5 1105 1107 0
8 5 1105 -1107 0
-1105 -27 1106 1108 0
-1105 -27 1106 -1108 0
-1106 16 2 1109 0
-1106 16 2 -1109 0
-7 17 1110 1112 0
-7 17 1110 -1112 0
-1110 -11 1111 1113 0
-1110 -11 1111 -1113 0
-1111 -23 -30 1114 0
-1111 -23 -30 -1114 0
14 30 1115 1117 0
14 30 1115 -1117 0
-1115 -7 1116 1118 0
-1115 -7 1116 -1118 0
-1116 -25 15 1119 0
-1116 -25 15 -1119 0
21 19 1120 1122 0
21 19 1120 -1122 0
-1120 -26 1121 1123 0
-1120 -26 1121 -1123 0
-1121 30 -6 1124 0
-1121 30 -6 -1124 0
18 14 1125 1127 0
18 14 1125 -1127 0
-1125 10 1126 1128 0
-1125 10 1126 -1128 0
-1126 -8 -17 1129 0
-1126 -8 -17 -1129 0
-16 29 10 -20 0
-19 -23 -29 7 0
15 21 12 -17 0
-28 -29 1130 1132 0
-28 -29 1130 -1132 0
-1130 1 1131 1133 0
-1130 1 1131 -1133 0
-1131 18 16 1134 0
-1131 18 16 -1134 0
4 16 1135 1137 0
4 16 1135 -1137 0
-1135 10 1136 1138 0
-1135 10 1136 -1138 0
-1136 13 -14 1139 0
-1136 13 -14 -1139 0
25 20 1140 1142 0
25 20 1140 -1142 0
-1140 -12 1141 1143 0
-1140 -12 1141 -1143 0
-1141 -11 23 1144 0
-1141 -11 23 -1144 0
-20 -2 1145 1147 0
-20 -2 1145 -1147 0
-1145 26 1146 1148 0
-1145 26 1146 -1148 0
-1146 13 19 1149 0
-1146 13 19 -1149 0
19 10 1150 1152 0
19 10 1150 -1152 0
-1150 -9 1151 1153 0
-1150 -9 1151 -1153 0
-1151 30 -25 1154 0
-1151 30 -25 -1154 0
5 -24 3 12 0
-27 3 24 1155 0
-27 3 24 -1155 0
20 -6 29 3 0
-3 21 1156 1158 0
-3 21 1156 -1158 0
-1156 -14 1157 1159 0
-1156 -14 1157 -1159 0
-1157 28 22 1160 0
-1157 28 22 -1160 0
25 -8 1161 1163 0
25 -8 1161 -1163 0
-1161 -15 1162 1164 0
-1161 -15 1162 -1164 0
-1162 -12 17 1165 0
-1162 -12 17 -1165 0
16 -20 1166 1168 0
16 -20 1166 -1168 0
-1166 18 1167 1169 0
-1166 18 1167 -1169 0
-1167 5 -17 1170 0
-1167 5 -17 -1170 0
-7 30 1171 1173 0
-7 30 1171 -1173 0
-1171 26 1172 1174 0
-1171 26 1172 -1174 0
-1172 -5 -25 1175 0
-1172 -5 -25 -1175 0
17 2 19 -13 0
17 26 1176 1178 0
17 26 1176 -1178 0
-1176 -30 1177 1179 0
-1176 -30 1177 -1179 0
-1177 21 -12 1180 0
-1177 21 -12 -1180 0
-20 14 -22 19 0
9 -3 1181 1183 0
9 -3 1181 -1183 0
-1181 -4 1182 1184 0
-1181 -4 1182 -1184 0
-1182 -28 -16 1185 0
-1182 -28 -16 -1185 0
-27 12 1186 1188 0
-27 12 1186 -1188 0
-1186 -10 1187 1189 0
-1186 -10 1187 -1189 0
-1187 -4 -25 1190 0
-1187 -4 -25 -1190 0
5 26 1191 1193 0
5 26 1191 -1193 0
-1191 19 1192 1194 0
-1191 19 1192 -1194 0
-1192 -16 -23 1195 0
-1192 -16 -23 -1195 0
6 -21 1196 1198 0
6 -21 1196 -1198 0
-1196 10 1197 1199 0
-1196 10 1197 -1199 0
-1197 -22 24 1200 0
-1197 -22 24 -1200 0
-9 -28 1201 1203 0
-9 -28 1201 -1203 0
-1201 -8 1202 1204 0
-1201 -8 1202 -1204 0
-1202 -3 -30 1205 0
-1202 -3 -30 -1205 0
-14 -3 1206 1208 0
-14 -3 1206 -1208 0
-1206 24 1207 1209 0
-1206 24 1207 -1209 0
-1207 -12 -2 1210 0
-1207 -12 -2 -1210 0
-2 -27 1211 1213 0
-2 -27 1211 -1213 0
-1211 28 1212 1214 0
-1211 28 1212 -1214 0
-1212 -12 -5 1215 0
-1212 -12 -5 -1215 0
17 1 1216 1218 0
17 1 1216 -1218 0
-1216 21 1217 1219 0
-1216 21 1217 -1219 0
-1217 -6 5 1220 0
-1217 -6 5 -1220 0
14 -18 1221 1223 0
14 -18 1221 -1223 0
-1221 28 1222 1224 0
-1221 28 1222 -1224 0
-1222 -4 -3 1225 0
-1222 -4 -3 -1225 0
-28 15 1226 1228 0
-28 15 1226 -1228 0
-1226 -14 1227 1229 0
-1226 -14 1227 -1229 0
-1227 -10 -17 1230 0
-1227 -10 -17 -1230 0
13 15 1231 1233 0
13 15 1231 -1233 0
-1231 -11 1232 1234 0
-1231 -11 1232 -1234 0
-1232 8 2 1235 0
-1232 8 2 -1235 0
-1 21 -19 -30 0
6 -8 1236 1238 0
6 -8 1236 -1238 0
-1236 13 1237 1239 0
-1236 13 1237 -1239 0
-1237 -11 -18 1240 0
-1237 -11 -18 -1240 0
22 4 1241 1243 0
22 4 1241 -1243 0
-1241 30 1242 1244 0
-1241 30 1242 -1244 0
-1242 -20 26 1245 0
-1242 -20 26 -1245 0
3 -9 1246 1248 0
3 -9 1246 -1248 0
-1246 -16 1247 1249 0
-1246 -16 1247 -1249 0
-1247 10 -23 1250 0
-1247 10 -23 -1250 0
6 -4 1251 1253 0
6 -4 1251 -1253 0
-1251 10 1252 1254 0
-1251 10 1252 -1254 0
-1252 -25 -27 1255 0
-1252 -25 -27 -1255 0
3 6 1256 1258 0
3 6 1256 -1258 0
-1256 17 1257 1259 0
-1256 17 1257 -1259 0
-1257 12 -25 1260 0
-1257 12 -25 -1260 0
12 7 23 26 0
27 -25 1261 1263 0
27 -25 1261 -1263 0
-1261 11 1262 1264 0
-1261 11 1262 -1264 0
-1262 22 -18 1265 0
-1262 22 -18 -1265 0
-17 20 -11 7 0
20 -5 15 -2 0
24 -26 -9 1266 0
24 -26 -9 -1266 0
-13 -24 -7 -10 0
29 -30 1267 1269 0
29 -30 1267 -1269 0
-1267 -5 1268 1270 0
-1267 -5 1268 -1270 0
-1268 20 -22 1271 0
-1268 20 -22 -1271 0
4 19 1272 1274 0
4 19 1272 -1274 0
-1272 12 1273 1275 0
-1272 12 1273 -1275 0
-1273 -1 -25 1276 0
-1273 -1 -25 -1276 0
11 7 1277 1279 0
11 7 1277 -1279 0
-1277 19 1278 1280 0
-1277 19 1278 -1280 0
-1278 -22 -24 1281 0
-1278 -22 -24 -1281 0
6 19 -14 28 0
10 -28 1282 1284 0
10 -28 1282 -1284 0
-1282 -15 1283 1285 0
-1282 -15 1283 -1285 0
-1283 25 -18 1286 0
-1283 25 -18 -1286 0
19 -15 1287 1289 0
19 -15 1287 -1289 0
-1287 26 1288 1290 0
-1287 26 1288 -1290 0
-1288 -21 25 1291 0
-1288 -21 25 -1291 0
1 -9 1292 1294 0
1 -9 1292 -1294 0
-1292 12 1293 1295 0
-1292 12 1293 -1295 0
-1293 -29 27 1296 0
-1293 -29 27 -1296 0
2 -25 1297 1299 0
2 -25 1297 -1299 0
-1297 21 1298 1300 0
-1297 21 1298 -1300 0
-1298 -7 27 1301 0
-1298 -7 27 -1301 0
-8 12 1302 1304 0
-8 12 1302 -1304 0
-1302 -6 1303 1305 0
-1302 -6 1303 -1305 0
-1303 17 9 1306 0
-1303 17 9 -1306 0
-2 9 -27 -20 0
-1 7 1307 1309 0
-1 7 1307 -1309 0
-1307 -10 1308 1310 0
-1307 -10 1308 -1310 0
-1308 -22 11 1311 0
-1308 -22 11 -1311 0
5 23 1312 1314 0
5 23 1312 -1314 0
-1312 -8 1313 1315 0
-1312 -8 1313 -1315 0
-1313 7 -13 1316 0
-1313 7 -13 -1316 0
-14 24 1317 1319 0
-14 24 1317 -1319 0
-1317 -13 1318 1320 0
-1317 -13 1318 -1320 0
-1318 25 3 1321 0
-1318 25 3 -1321 0
1 10 1322 1324 0
1 10 1322 -1324 0
-1322 -30 1323 1325 0
-1322 -30 1323 -1325 0
-1323 -26 15 1326 0
-1323 -26 15 -1326 0
-8 -25 -4 -15 0
25 30 1327 1329 0
25 30 1327 -1329 0
-1327 27 1328 1330 0
-1327 27 1328 -1330 0
-1328 21 19 1331 0
-1328 21 19 -1331 0
-1 -12 1332 1334 0
-1 -12 1332 -1334 0
-1332 -2 1333 1335 0
-1332 -2 1333 -1335 0
-1333 13 -10 1336 0
-1333 13 -10 -1336 0
16 7 -1 15 0
20 9 1337 1339 0
20 9 1337 -1339 0
-1337 -14 1338 1340 0
-1337 -14 1338 -1340 0
-1338 -11 -24 1341 0
-1338 -11 -24 -1341 0
5 2 1342 1344 0
5 2 1342 -1344 0
-1342 16 1343 1345 0
-1342 16 1343 -1345 0
-1343 1 28 1346 0
-1343 1 28 -1346 0
19 26 1347 1349 0
19 26 1347 -1349 0
-1347 -29 1348 1350 0
-1347 -29 1348 -1350 0
-1348 17 4 1351 0
-1348 17 4 -1351 0
-15 -24 1352 1354 0
-15 -24 1352 -1354 0
-1352 -5 1353 1355 0
-1352 -5 1353 -1355 0
-1353 14 -13 1356 0
-1353 14 -13 -1356 0
21 20 1357 1359 0
21 20 1357 -1359 0
-1357 -22 1358 1360 0
-1357 -22 1358 -1360 0
-1358 18 11 1361 0
-1358 18 11 -1361 0
-12 -20 1362 1364 0
-12 -20 1362 -1364 0
-1362 -30 1363 1365 0
-1362 -30 1363 -1365 0
-1363 3 -17 1366 0
-1363 3 -17 -1366 0
7 -13 1367 1369 0
7 -13 1367 -1369 0
-1367 -28 1368 1370 0
-1367 -28 1368 -1370 0
-1368 -21 -25 1371 0
-1368 -21 -25 -1371 0
-11 -30 1372 1374 0
-11 -30 1372 -1374 0
-1372 -18 1373 1375 0
-1372 -18 1373 -1375 0
-1373 -16 -6 1376 0
-1373 -16 -6 -1376 0
-20 2 5 29 0
27 18 1377 1379 0
27 18 1377 -1379 0
-1377 -2 1378 1380 0
-1377 -2 1378 -1380 0
-1378 -5 -26 1381 0
-1378 -5 -26 -1381 0
1 16 1382 1384 0
1 16 1382 -1384 0
-1382 20 1383 1385 0
-1382 20 1383 -1385 0
-1383 22 30 1386 0
-1383 22 30 -1386 0
11 24 1387 1389 0
11 24 1387 -1389 0
-1387 8 1388 1390 0
-1387 8 1388 -1390 0
-1388 -20 -9 1391 0
-1388 -20 -9 -1391 0
3 8 1392 1394 0
3 8 1392 -1394 0
-1392 -9 1393 1395 0
-1392 -9 1393 -1395 0
-1393 1 -20 1396 0
-1393 1 -20 -1396 0
-3 -30 1397 1399 0
-3 -30 1397 -1399 0
-1397 2 1398 1400 0
-1397 2 1398 -1400 0
-1398 6 13 1401 0
-1398 6 13 -1401 0
16 15 1402 1404 0
16 15 1402 -1404 0
-1402 -18 1403 1405 0
-1402 -18 1403 -1405 0
-1403 12 -25 1406 0
-1403 12 -25 -1406 0
-18 7 -15 9 0
-22 1 1407 1409 0
-22 1 1407 -1409 0
-1407 -2 1408 1410 0
-1407 -2 1408 -1410 0
-1408 8 -3 1411 0
-1408 8 -3 -1411 0
-14 -22 1412 1414 0
-14 -22 1412 -1414 0
-1412 6 1413 1415 0
-1412 6 1413 -1415 0
-1413 -30 -17 1416 0
-1413 -30 -17 -1416 0
-23 -1 -13 -5 0
18 -7 1417 1419 0
18 -7 1417 -1419 0
-1417 20 1418 1420 0
-1417 20 1418 -1420 0
-1418 30 -5 1421 0
-1418 30 -5 -1421 0
16 3 1422 1424 0
16 3 1422 -1424 0
-1422 -24 1423 1425 0
-1422 -24 1423 -1425 0
-1423 -4 -7 1426 0
-1423 -4 -7 -1426 0
-24 28 1427 1429 0
-24 28 1427 -1429 0
-1427 -7 1428 1430 0
-1427 -7 1428 -1430 0
-1428 -29 -5 1431 0
-1428 -29 -5 -1431 0
-28 26 -13 19 0
-7 11 1432 1434 0
-7 11 1432 -1434 0
-1432 -27 1433 1435 0
-1432 -27 1433 -1435 0
-1433 29 18 1436 0
-1433 29 18 -1436 0
-18 -23 1437 1439 0
-18 -23 1437 -1439 0
-1437 27 1438 1440 0
-1437 27 1438 -1440 0
-1438 14 28 1441 0
-1438 14 28 -1441 0
24 -28 1442 1444 0
24 -28 1442 -1444 0
-1442 21 1443 1445 0
-1442 21 1443 -1445 0
-1443 14 18 1446 0
-1443 14 18 -1446 0
20 -7 23 10 0
-12 -22 21 -23 0
2 -13 7 -12 0
9 -20 1447 1449 0
9 -20 1447 -1449 0
-1447 -18 1448 1450 0
-1447 -18 1448 -1450 0
-1448 29 16 1451 0
-1448 29 16 -1451 0
-20 -26 1452 1454 0
-20 -26 1452 -1454 0
-1452 -5 1453 1455 0
-1452 -5 1453 -1455 0
-1453 -21 16 1456 0
-1453 -21 16 -1456 0
-24 -28 22 -12 0
-20 9 1457 1459 0
-20 9 1457 -1459 0
-1457 -14 1458 1460 0
-1457 -14 1458 -1460 0
-1458 21 15 1461 0
-1458 21 15 -1461 0
-21 -9 -18 -30 0
9 -4 -1 7 0
-24 15 -18 -27 0
14 27 1462 1464 0
14 27 1462 -1464 0
-1462 -25 1463 1465 0
-1462 -25 1463 -1465 0
-1463 -29 10 1466 0
-1463 -29 10 -1466 0
-12 -28 22 -5 0
-26 -6 1467 1469 0
-26 -6 1467 -1469 0
-1467 -10 1468 1470 0
-1467 -10 1468 -1470 0
-1468 5 11 1471 0
-1468 5 11 -1471 0
2 -14 1472 1474 0
2 -14 1472 -1474 0
-1472 -10 1473 1475 0
-1472 -10 1473 -1475 0
-1473 13 25 1476 0
-1473 13 25 -1476 0
-23 -27 1477 1479 0
-23 -27 1477 -1479 0
-1477 -30 1478 1480 0
-1477 -30 1478 -1480 0
-1478 -29 10 1481 0
-1478 -29 10 -1481 0
8 14 -28 13 0
11 3 1482 1484 0
11 3 1482 -1484 0
-1482 -30 1483 1485 0
-1482 -30 1483 -1485 0
-1483 14 -19 1486 0
-1483 14 -19 -1486 0
6 27 1487 1489 0
6 27 1487 -1489 0
-1487 10 1488 1490 0
-1487 10 1488 -1490 0
-1488 -1 25 1491 0
-1488 -1 25 -1491 0
-2 19 1492 1494 0
-2 19 1492 -1494 0
-1492 -16 1493 1495 0
-1492 -16 1493 -1495 0
-1493 18 27 1496 0
-1493 18 27 -1496 0
-5 -22 1497 1499 0
-5 -22 1497 -1499 0
-1497 30 1498 1500 0
-1497 30 1498 -1500 0
-1498 -9 8 1501 0
-1498 -9 8 -1501 0
-13 -8 1502 1504 0
-13 -8 1502 -1504 0
-1502 17 1503 1505 0
-1502 17 1503 -1505 0
-1503 26 -21 1506 0
-1503 26 -21 -1506 0
6 21 -10 -22 0
-9 -8 20 24 0
14 -26 1507 1509 0
14 -26 1507 -1509 0
-1507 1 1508 1510 0
-1507 1 1508 -1510 0
-1508 -22 29 1511 0
-1508 -22 29 -1511 0
-3 5 1512 1514 0
-3 5 1512 -1514 0
-1512 16 1513 1515 0
-1512 16 1513 -1515 0
-1513 22 13 1516 0
-1513 22 13 -1516 0
9 -12 1517 1519 0
9 -12 1517 -1519 0
-1517 -14 1518 1520 0
-1517 -14 1518 -1520 0
-1518 19 2 1521 0
-1518 19 2 -1521 0
26 -13 -3 28 0
1 23 1522 1524 0
1 23 1522 -1524 0
-1522 -6 1523 1525 0
-1522 -6 1523 -1525 0
-1523 -21 30 1526 0
-1523 -21 30 -1526 0
-19 -14 30 -29 0
-20 -6 1527 1529 0
-20 -6 1527 -1529 0
-1527 8 1528 1530 0
-1527 8 1528 -1530 0
-1528 -17 29 1531 0
-1528 -17 29 -1531 0
28 -21 1532 1534 0
28 -21 1532 -1534 0
-1532 6 1533 1535 0
-1532 6 1533 -1535 0
-1533 14 12 1536 0
-1533 14 12 -1536 0
24 9 2 -3 0
11 21 6 -26 0

